(set-logic ALL)
(declare-const self String)
(declare-const value String)
(declare-const expression String)
(declare-const connection String)
(assert (not (< (str.len value) 0)))
(assert (not (= (+ 0 (str.indexof value "urn:" 0)) (- 1))))
(check-sat)
(get-value (self))
(get-value (value))
(get-value (expression))
(get-value (connection))
